true true false
presolving:
presolving (0 rounds: 0 fast, 0 medium, 0 exhaustive):
 0 deleted vars, 0 deleted constraints, 0 added constraints, 0 tightened bounds, 0 added holes, 0 changed sides, 0 changed coefficients
 0 implications, 0 cliques
presolved problem has 46 variables (46 bin, 0 int, 0 impl, 0 cont) and 36 constraints
     36 constraints of type <linear>
transformed objective value is always integral (scale: 1)
Presolving Time: 0.00

 time | node  | left  |LP iter|LP it/n|mem/heur|mdpt |vars |cons |rows |cuts |sepa|confs|strbr|  dualbound   | primalbound  |  gap   | compl. 
p 0.0s|     1 |     0 |     0 |     - |shiftand|   0 |  46 |  36 |  36 |   0 |  0 |   0 |   0 |      --      | 1.000000e+01 |    Inf | unknown
 time | node  | left  |LP iter|LP it/n|mem/heur|mdpt |vars |cons |rows |cuts |sepa|confs|strbr|  dualbound   | primalbound  |  gap   | compl. 
  0.0s|     1 |     0 |    32 |     - |  1811k |   0 | 419 |  36 |  36 |   0 |  0 |   0 |   0 |-8.400000e+01 | 1.000000e+01 |    Inf | unknown
 time | node  | left  |LP iter|LP it/n|mem/heur|mdpt |vars |cons |rows |cuts |sepa|confs|strbr|  dualbound   | primalbound  |  gap   | compl. 
  0.2s|     1 |     0 |   157 |     - |  2972k |   0 | 881 |  36 |  36 |   0 |  0 |   0 |   0 | 9.000000e+00 | 1.000000e+01 |  11.11%| unknown
 time | node  | left  |LP iter|LP it/n|mem/heur|mdpt |vars |cons |rows |cuts |sepa|confs|strbr|  dualbound   | primalbound  |  gap   | compl. 
  0.3s|     1 |     2 |   590 |     - |  3268k |   0 | 881 |  36 |  36 |   0 |  1 |   0 |   0 | 9.000000e+00 | 1.000000e+01 |  11.11%| unknown
 time | node  | left  |LP iter|LP it/n|mem/heur|mdpt |vars |cons |rows |cuts |sepa|confs|strbr|  dualbound   | primalbound  |  gap   | compl. 
  0.3s|     2 |     3 |   616 |  26.0 |  3298k |   1 | 881 |  36 |  36 |   0 |  1 |   0 |   0 | 9.000000e+00 | 1.000000e+01 |  11.11%| unknown
 time | node  | left  |LP iter|LP it/n|mem/heur|mdpt |vars |cons |rows |cuts |sepa|confs|strbr|  dualbound   | primalbound  |  gap   | compl. 
  0.3s|     3 |     4 |   662 |  36.0 |  3452k |   1 | 881 |  36 |  36 |   0 |  1 |   0 |   0 | 9.000000e+00 | 1.000000e+01 |  11.11%| unknown
 time | node  | left  |LP iter|LP it/n|mem/heur|mdpt |vars |cons |rows |cuts |sepa|confs|strbr|  dualbound   | primalbound  |  gap   | compl. 
  0.3s|     4 |     5 |   678 |  29.3 |  3463k |   2 | 881 |  36 |  36 |   0 |  1 |   0 |   0 | 9.000000e+00 | 1.000000e+01 |  11.11%| unknown
 time | node  | left  |LP iter|LP it/n|mem/heur|mdpt |vars |cons |rows |cuts |sepa|confs|strbr|  dualbound   | primalbound  |  gap   | compl. 
  0.3s|     5 |     6 |   679 |  22.2 |  3466k |   3 | 881 |  36 |  36 |   0 |  1 |   0 |   0 | 9.000000e+00 | 1.000000e+01 |  11.11%| unknown
 time | node  | left  |LP iter|LP it/n|mem/heur|mdpt |vars |cons |rows |cuts |sepa|confs|strbr|  dualbound   | primalbound  |  gap   | compl. 
  0.4s|     6 |     7 |   681 |  18.2 |  3467k |   4 | 881 |  36 |  36 |   0 |  1 |   0 |   0 | 9.000000e+00 | 1.000000e+01 |  11.11%| unknown
 time | node  | left  |LP iter|LP it/n|mem/heur|mdpt |vars |cons |rows |cuts |sepa|confs|strbr|  dualbound   | primalbound  |  gap   | compl. 
  0.5s|     7 |     8 |   956 |  61.0 |  4508k |   4 |1046 |  36 |  36 |   0 |  1 |   0 |   0 | 9.000000e+00 | 1.000000e+01 |  11.11%| unknown
 time | node  | left  |LP iter|LP it/n|mem/heur|mdpt |vars |cons |rows |cuts |sepa|confs|strbr|  dualbound   | primalbound  |  gap   | compl. 
  0.5s|     8 |     9 |  1021 |  61.6 |  4598k |   4 |1046 |  36 |  36 |   0 |  1 |   0 |   0 | 9.000000e+00 | 1.000000e+01 |  11.11%| unknown
 time | node  | left  |LP iter|LP it/n|mem/heur|mdpt |vars |cons |rows |cuts |sepa|confs|strbr|  dualbound   | primalbound  |  gap   | compl. 
  0.5s|     9 |    10 |  1024 |  54.2 |  4620k |   4 |1046 |  36 |  36 |   0 |  1 |   0 |   0 | 9.000000e+00 | 1.000000e+01 |  11.11%| unknown
 time | node  | left  |LP iter|LP it/n|mem/heur|mdpt |vars |cons |rows |cuts |sepa|confs|strbr|  dualbound   | primalbound  |  gap   | compl. 
  0.6s|    10 |    11 |  1033 |  49.2 |  4620k |   4 |1046 |  36 |  36 |   0 |  1 |   0 |   0 | 9.000000e+00 | 1.000000e+01 |  11.11%| unknown
 time | node  | left  |LP iter|LP it/n|mem/heur|mdpt |vars |cons |rows |cuts |sepa|confs|strbr|  dualbound   | primalbound  |  gap   | compl. 
  0.7s|    11 |    12 |  1057 |  46.7 |  4620k |   5 |1058 |  36 |  36 |   0 |  1 |   0 |   0 | 9.000000e+00 | 1.000000e+01 |  11.11%| unknown
 time | node  | left  |LP iter|LP it/n|mem/heur|mdpt |vars |cons |rows |cuts |sepa|confs|strbr|  dualbound   | primalbound  |  gap   | compl. 
  0.8s|    12 |    11 |  1149 |  50.8 |  4655k |   6 |1156 |  36 |  36 |   0 |  0 |   0 |   0 | 9.000000e+00 | 1.000000e+01 |  11.11%| unknown
 time | node  | left  |LP iter|LP it/n|mem/heur|mdpt |vars |cons |rows |cuts |sepa|confs|strbr|  dualbound   | primalbound  |  gap   | compl. 
  0.8s|    13 |    10 |  1155 |  47.1 |  4666k |   6 |1156 |  36 |  36 |   0 |  0 |   0 |   0 | 9.000000e+00 | 1.000000e+01 |  11.11%|   0.57%
 time | node  | left  |LP iter|LP it/n|mem/heur|mdpt |vars |cons |rows |cuts |sepa|confs|strbr|  dualbound   | primalbound  |  gap   | compl. 
  0.9s|    14 |    11 |  1186 |  45.8 |  4962k |   6 |1174 |  36 |  36 |   0 |  1 |   0 |   0 | 9.000000e+00 | 1.000000e+01 |  11.11%|   1.15%
 time | node  | left  |LP iter|LP it/n|mem/heur|mdpt |vars |cons |rows |cuts |sepa|confs|strbr|  dualbound   | primalbound  |  gap   | compl. 
  1.0s|    15 |    12 |  1197 |  43.4 |  5005k |   6 |1174 |  36 |  36 |   0 |  1 |   0 |   0 | 9.000000e+00 | 1.000000e+01 |  11.11%|   1.15%
 time | node  | left  |LP iter|LP it/n|mem/heur|mdpt |vars |cons |rows |cuts |sepa|confs|strbr|  dualbound   | primalbound  |  gap   | compl. 
  1.0s|    16 |    13 |  1204 |  40.9 |  5012k |   6 |1174 |  36 |  36 |   0 |  1 |   0 |   0 | 9.000000e+00 | 1.000000e+01 |  11.11%|   1.15%
 time | node  | left  |LP iter|LP it/n|mem/heur|mdpt |vars |cons |rows |cuts |sepa|confs|strbr|  dualbound   | primalbound  |  gap   | compl. 
  1.0s|    17 |    14 |  1222 |  39.5 |  5013k |   6 |1174 |  36 |  36 |   0 |  1 |   0 |   0 | 9.000000e+00 | 1.000000e+01 |  11.11%|   1.15%
 time | node  | left  |LP iter|LP it/n|mem/heur|mdpt |vars |cons |rows |cuts |sepa|confs|strbr|  dualbound   | primalbound  |  gap   | compl. 
  1.1s|    18 |    15 |  1231 |  37.7 |  5021k |   7 |1174 |  36 |  36 |   0 |  1 |   0 |   0 | 9.000000e+00 | 1.000000e+01 |  11.11%|   1.15%
 time | node  | left  |LP iter|LP it/n|mem/heur|mdpt |vars |cons |rows |cuts |sepa|confs|strbr|  dualbound   | primalbound  |  gap   | compl. 
  1.2s|    19 |    16 |  1256 |  37.0 |  5121k |   7 |1216 |  36 |  36 |   0 |  1 |   0 |   0 | 9.000000e+00 | 1.000000e+01 |  11.11%|   1.15%
 time | node  | left  |LP iter|LP it/n|mem/heur|mdpt |vars |cons |rows |cuts |sepa|confs|strbr|  dualbound   | primalbound  |  gap   | compl. 
  1.3s|    20 |    15 |  1295 |  37.1 |  5594k |   8 |1236 |  36 |  36 |   0 |  0 |   0 |   0 | 9.000000e+00 | 1.000000e+01 |  11.11%|   1.15%
 time | node  | left  |LP iter|LP it/n|mem/heur|mdpt |vars |cons |rows |cuts |sepa|confs|strbr|  dualbound   | primalbound  |  gap   | compl. 
  1.3s|    21 |    16 |  1446 |  42.8 |  5703k |   8 |1236 |  36 |  36 |   0 |  1 |   0 |   0 | 9.000000e+00 | 1.000000e+01 |  11.11%|   1.29%
 time | node  | left  |LP iter|LP it/n|mem/heur|mdpt |vars |cons |rows |cuts |sepa|confs|strbr|  dualbound   | primalbound  |  gap   | compl. 
  1.4s|    22 |    17 |  1489 |  42.8 |  5808k |   8 |1269 |  36 |  36 |   0 |  1 |   0 |   0 | 9.000000e+00 | 1.000000e+01 |  11.11%|   1.29%
 time | node  | left  |LP iter|LP it/n|mem/heur|mdpt |vars |cons |rows |cuts |sepa|confs|strbr|  dualbound   | primalbound  |  gap   | compl. 
  1.5s|    23 |    16 |  1536 |  43.0 |  5813k |   8 |1306 |  36 |  36 |   0 |  0 |   0 |   0 | 9.000000e+00 | 1.000000e+01 |  11.11%|   1.29%
 time | node  | left  |LP iter|LP it/n|mem/heur|mdpt |vars |cons |rows |cuts |sepa|confs|strbr|  dualbound   | primalbound  |  gap   | compl. 
  1.7s|    24 |    15 |  1625 |  45.0 |  5821k |   8 |1394 |  36 |  36 |   0 |  0 |   0 |   0 | 9.000000e+00 | 1.000000e+01 |  11.11%|   2.44%
 time | node  | left  |LP iter|LP it/n|mem/heur|mdpt |vars |cons |rows |cuts |sepa|confs|strbr|  dualbound   | primalbound  |  gap   | compl. 
r 1.7s|    25 |     0 |  1630 |  43.3 |simplero|   8 |1394 |  36 |  36 |   0 |  0 |   0 |   0 | 9.000000e+00 | 9.000000e+00 |   0.00%|  99.43%

SCIP Status        : problem is solved [optimal solution found]
Solving Time (sec) : 1.74
Solving Nodes      : 25
Primal Bound       : +9.00000000000000e+00 (4 solutions)
Dual Bound         : +9.00000000000000e+00
Gap                : 0.00 %
Running with parallel: True bidir: True symbreak: False
Number of Nodes:  36
47.37011316872428% holds
starting cheapest insertion heuristic
Heuristic without TSP improvement:  10
Heuristic without TSP improvement time:  0.1
Heuristic Sol:  10
Heuristic total time:  0.1
[[4, 10, 22, 1], [14, 9, 0, 2], [23, 35, 7, 33], [34, 21, 27], [32, 6, 25, 19], [31, 5, 11, 8, 20, 13, 30], [29, 17], [28, 16, 12], [26, 3, 15], [24, 18]]
Instance path:  /home/htc/mghannam/SCRATCH/lccp-rust/data/at84_ftv35.npcc
Timelimit:  7200
Heuristic without TSP improvement:  10
Heuristic without TSP improvement time:  0.1
Heuristic Sol:  10
Heuristic total time:  0.1
at 1 zero_duals: 26
Switching to elementary pricing
at1, LP obj: 10.0 n_added_paths: 373
updated lowerbound from -1e+20 to -84
at 1 zero_duals: 26
Switching to elementary pricing
at1, LP obj: 10.0 n_added_paths: 64
updated lowerbound from -84.0 to -21
at 1 zero_duals: 16
Switching to elementary pricing
at1, LP obj: 9.823529411764707 n_added_paths: 384
at 1 zero_duals: 2
Switching to elementary pricing
at1, LP obj: 8.666666666666668 n_added_paths: 14
updated lowerbound from 1.0 to 9
Gap too small = 0, stopping pricing with lb = 9
Gap too small = 0, stopping pricing with lb = 9
Gap too small = 0, stopping pricing with lb = 9
Gap too small = 0, stopping pricing with lb = 9
Gap too small = 0, stopping pricing with lb = 9
Gap too small = 0, stopping pricing with lb = 9
at 11 zero_duals: 8
Switching to elementary pricing
at11, LP obj: 9.277777777777777 n_added_paths: 165
Gap too small = 0, stopping pricing with lb = 9
Gap too small = 0, stopping pricing with lb = 9
Gap too small = 0, stopping pricing with lb = 9
Gap too small = 0, stopping pricing with lb = 9
at 20 zero_duals: 6
Switching to elementary pricing
at20, LP obj: 9.071428571428571 n_added_paths: 12
Gap too small = 0, stopping pricing with lb = 9
at 22 zero_duals: 34
Switching to elementary pricing
at22, LP obj: 1e+20 n_added_paths: 13
updated lowerbound from 9.0 to 100000000000000000000
at 22 zero_duals: 12
Switching to elementary pricing
at22, LP obj: 9.857142857142856 n_added_paths: 57
at 22 zero_duals: 6
Switching to elementary pricing
at22, LP obj: 9.58235294117647 n_added_paths: 23
at 22 zero_duals: 7
Switching to elementary pricing
at22, LP obj: 9.333333333333334 n_added_paths: 5
updated lowerbound from 9.0 to 10
at 23 zero_duals: 6
Switching to elementary pricing
at23, LP obj: 9.071428571428571 n_added_paths: 0
updated lowerbound from 9.0 to 10
at 19 zero_duals: 4
Switching to elementary pricing
at19, LP obj: 9.055555555555555 n_added_paths: 18
Gap too small = 0, stopping pricing with lb = 9
Gap too small = 0, stopping pricing with lb = 9
Gap too small = 0, stopping pricing with lb = 9
Gap too small = 0, stopping pricing with lb = 9
Gap too small = 0, stopping pricing with lb = 9
at 31 zero_duals: 6
Switching to elementary pricing
at31, LP obj: 9.083333333333334 n_added_paths: 42
Gap too small = 0, stopping pricing with lb = 9
at 33 zero_duals: 9
Switching to elementary pricing
at33, LP obj: 9.125 n_added_paths: 7
at 33 zero_duals: 6
Switching to elementary pricing
at33, LP obj: 9.113636363636363 n_added_paths: 12
at 33 zero_duals: 6
Switching to elementary pricing
at33, LP obj: 9.09375 n_added_paths: 1
updated lowerbound from 9.0 to 10
Gap too small = 0, stopping pricing with lb = 9
at 32 zero_duals: 4
Switching to elementary pricing
at32, LP obj: 9.069444444444445 n_added_paths: 33
Gap too small = 0, stopping pricing with lb = 9
at 21 zero_duals: 11
Switching to elementary pricing
at21, LP obj: 9.107142857142858 n_added_paths: 32
at 21 zero_duals: 5
Switching to elementary pricing
at21, LP obj: 9.067307692307692 n_added_paths: 4
at 21 zero_duals: 6
Switching to elementary pricing
at21, LP obj: 9.0625 n_added_paths: 1
at 21 zero_duals: 6
Switching to elementary pricing
at21, LP obj: 9.05 n_added_paths: 0
updated lowerbound from 9.0 to 10
at 24 zero_duals: 34
at24, LP obj: 1e+20 n_added_paths: 25
at 24 zero_duals: 35
Switching to elementary pricing
at24, LP obj: 1e+20 n_added_paths: 20
updated lowerbound from 9.0 to 100000000000000000000
at 24 zero_duals: 4
Switching to elementary pricing
at24, LP obj: 9.84 n_added_paths: 42
at 24 zero_duals: 5
Switching to elementary pricing
at24, LP obj: 9.285714285714286 n_added_paths: 1
updated lowerbound from 9.0 to 10
Gap too small = 0, stopping pricing with lb = 9
Best solution found:
t_[34, 21, 27, 34] 1.0 1.0
checking cycle [34, 21, 27, 34]
[34, 21, 27, 34] 193 126
t_[24, 18, 24] 1.0 1.0
checking cycle [24, 18, 24]
[24, 18, 24] 240 226
[14, 6, 5, 0, 2, 14] 1.0 1.0
checking cycle [14, 6, 5, 0, 2, 14]
[14, 6, 5, 0, 2, 14] 315 256
[16, 28, 12, 35, 16] 1.0 1.0
checking cycle [16, 28, 12, 35, 16]
[16, 28, 12, 35, 16] 185 172
[3, 22, 15, 26, 3] 1.0 1.0
checking cycle [3, 22, 15, 26, 3]
[3, 22, 15, 26, 3] 239 219
[19, 32, 25, 19] 1.0 1.0
checking cycle [19, 32, 25, 19]
[19, 32, 25, 19] 202 156
[17, 20, 13, 8, 11, 29, 17] 1.0 1.0
checking cycle [17, 20, 13, 8, 11, 29, 17]
[17, 20, 13, 8, 11, 29, 17] 217 200
[7, 33, 31, 30, 23, 7] 1.0 1.0
checking cycle [7, 33, 31, 30, 23, 7]
[7, 33, 31, 30, 23, 7] 199 199
[1, 4, 10, 9, 1] 1.0 1.0
checking cycle [1, 4, 10, 9, 1]
[1, 4, 10, 9, 1] 323 256
